100
32
16
7
32
19
28
31
3
21
31
31
6
32
31
30
17
17
8
14
2
12
4
14
5
14
23
26
25
6
24
10
6
23
4
27
24
16
12
11
23
21
23
23
25
3
2
25
30
3
21
7
10
22
30
21
17
6
8
9
2
25
1
18
28
27
26
27
30
30
9
21
29
5
11
20
16
28
32
31
27
31
1
31
27
17
21
27
17
31
17
24
13
9
22
2
24
20
10
17
29
28